Comps = {frontend0, frontend1, backend0, backend1, database0, database1};
mustComps = {frontend0, frontend1};
Flavs = {tiny, medium, large};
Nodes = {n1, n2, n3, n4};
CRes = {CPU, RAM, storage, bwIn, bwOut};
NRes = {ssl, fwall, encr, avail, latency};
Flav = [{medium, large}, {medium, large}, {tiny, medium, large}, {tiny, medium, large}, {large}, {large}];
Uses = array2d(CompFlavs, CompFlavs, [
	0,0,0,0,1,0,0,0,0,0,0,0,
	0,0,0,0,1,0,0,0,0,0,0,0,
	0,0,0,0,1,0,0,0,0,0,0,0,
	0,0,0,0,1,0,0,0,0,0,0,0,
	0,0,0,0,0,0,0,0,0,0,0,0,
	0,0,0,0,0,0,0,0,0,1,0,0,
	0,0,0,0,0,0,0,0,0,1,0,0,
	0,0,0,0,0,0,0,0,0,0,0,0,
	0,0,0,0,0,0,1,0,0,0,0,0,
	0,0,0,0,0,0,1,0,0,0,0,0,
	0,0,0,0,0,0,0,0,0,0,0,0,
	0,0,0,0,0,0,0,0,0,0,0,0,
]);
mayUse = array2d(Comps, CompFlavs, [
	0,0,0,0,0,0,0,0,0,0,0,0,
	0,0,0,0,0,0,0,0,0,0,0,0,
	1,1,1,1,0,0,0,0,1,1,0,0,
	0,0,0,0,0,1,1,0,0,0,0,0,
	0,0,0,0,0,0,0,0,0,0,0,0,
	0,0,0,0,0,0,0,0,0,0,0,0,
]);
MIN_RBOUNDS = 0;
MAX_RBOUNDS = 1000000;

worstBounds = [0, 0, 0, 0, 0, 0, 0, 0, 0, MAX_RBOUNDS];
bestBounds = [MAX_RBOUNDS - i | i in worstBounds];

comReq = array2d(CompFlavs, Res, [
  2, 322, 423, 918, 450, 1, 0, 1, 97, MAX_RBOUNDS,
  2, 421, 359, 868, 468, 1, 0, 1, 96, MAX_RBOUNDS,
  2, 384, 415, 650, 923, 0, 1, 0, 95, MAX_RBOUNDS,
  2, 467, 225, 416, 619, 0, 1, 1, 95, MAX_RBOUNDS,
  8, 263, 301, 305, 628, 1, 1, 1, 96, MAX_RBOUNDS,
  2, 214, 320, 514, 837, 1, 1, 1, 95, MAX_RBOUNDS,
  8, 432, 448, 859, 764, 1, 0, 1, 95, MAX_RBOUNDS,
  8, 335, 249, 636, 562, 0, 0, 1, 95, MAX_RBOUNDS,
  4, 370, 348, 981, 422, 1, 0, 0, 96, MAX_RBOUNDS,
  8, 346, 267, 957, 825, 0, 1, 1, 97, MAX_RBOUNDS,
  2, 476, 278, 463, 222, 1, 1, 1, 97, MAX_RBOUNDS,
  2, 460, 312, 661, 874, 0, 1, 1, 95, MAX_RBOUNDS,
]);

nodeCap = array2d(Nodes0, Res, [bestBounds[r] | r in Res] ++ [
  16, 66895, 256394, 12439, 18422, 1, 1, 1, 98, 0,
  16, 26695, 959615, 14234, 13681, 1, 0, 1, 99, 0,
  8, 28512, 243105, 22820, 18254, 1, 1, 1, 98, 0,
  16, 125756, 424805, 18804, 23196, 0, 1, 1, 98, 0,
]);

cost = array2d(Nodes0, Res, [
  0, 0, 0, 0, 0, 0, 0, 0, 0, 0, % no node
  16, 9, 24, 0, 0, 0, 0, 0, 0, 0,
  16, 8, 21, 0, 0, 0, 0, 0, 0, 0,
  18, 7, 25, 0, 0, 0, 0, 0, 0, 0,
  11, 8, 21, 0, 0, 0, 0, 0, 0, 0,
]);

carb = array2d(Nodes0, Res, [
  0, 0, 0, 0, 0, 0, 0, 0, 0, 0, % no node
  15, 42, 31, 0, 0, 0, 0, 0, 0, 0,
  15, 29, 38, 0, 0, 0, 0, 0, 0, 0,
  7, 4, 38, 0, 0, 0, 0, 0, 0, 0,
  46, 31, 49, 0, 0, 0, 0, 0, 0, 0,
]);

costBudget = 37368;
carbBudget = 34403;

depReq = array4d(Comps, Flavs, Comps, Res, [
  if c1 = frontend0 /\ c2 = backend1 /\ r = N(avail) then
    95
  elseif c1 = frontend1 /\ c2 = backend1 /\ r = N(avail) then
    97
  elseif c1 = frontend1 /\ c2 = backend0 /\ r = N(avail) then
    97
  elseif c1 = frontend0 /\ c2 = backend0 /\ r = N(avail) then
    97
  else
    worstBounds[r]
  endif | c1 in Comps, i in Flavs, c2 in Comps, r in Res]);

linkCap = array3d(Nodes0, Nodes0, Res, [
  if ni = 0 \/ nj = 0 then
    bestBounds[r]
  elseif ni = nj /\ r = N(avail) then
    nodeCap[ni,r]
  elseif {ni, nj} = {n1, n2} /\ r = N(avail) then
    98
  elseif {ni, nj} = {n2, n4} /\ r = N(avail) then
    99
  elseif {ni, nj} = {n1, n4} /\ r = N(avail) then
    99
  elseif {ni, nj} = {n2, n3} /\ r = N(avail) then
    99
  elseif {ni, nj} = {n1, n3} /\ r = N(avail) then
    99
  elseif {ni, nj} = {n3, n4} /\ r = N(avail) then
    98
  else
    worstBounds[r]
  endif | ni in Nodes0, nj in Nodes0, r in Res]);

imp = array2d(Comps, Flavs, [
  1, 2, 7,
  3, 6, 7,
  6, 8, 9,
  3, 4, 6,
  2, 3, 9,
  4, 7, 9,
]);

